
Gurobi 9.1.2 (win64) logging started Fri Sep 24 00:50:47 2021

Changed value of parameter LogFile to ../results/logs/log_samuel_kroger_2021_09_24_00_50_46.csv_17_250.log
   Prev:   Default: 
Changed value of parameter method to 3
   Prev: -1  Min: -1  Max: 5  Default: -1
Changed value of parameter lazyConstraints to 1
   Prev: 0  Min: 0  Max: 1  Default: 0
